100
1000
494
493
491
485
480
478
473
472
462
459
458
457
452
452
446
443
439
438
437
437
436
429
425
422
421
416
415
415
410
408
407
406
399
394
391
391
388
386
385
383
373
373
372
361
361
357
353
346
344
342
340
327
325
325
320
319
313
308
307
305
303
298
294
290
287
283
283
280
280
278
277
275
273
273
267
267
265
262
258
253
248
243
243
242
240
232
232
228
223
211
209
207
198
197
192
192
191
176
172
171
